units		  metal
atom_style	  atomic 
timestep 	  0.002 
dimension	  3
boundary	  p p p

read_data Cu_SC_N4000_1vac.dat

##Be careful to use eam/alloy type Mishin copper potential with funcfl format

pair_style eam/alloy
pair_coeff * * /home/ldoan/lammps-3Mar20/potentials/Cu_mishin1.eam.alloy Cu

neighbor 1.0 bin
neigh_modify every 1 delay 0 check yes

dump atompos all custom 1000 dump.pos.*.dat id type x y z fx fy fz

thermo_style   custom step time temp lx vol pe press pxx
thermo_modify  flush yes
thermo 100

min_style cg 
minimize 1.0e-10 1.0e-4 5000 500000

